db/inputs/18687279822358946641092919143066720092.smt2
(set-logic QF_FP)
(declare-const x0 (_ FloatingPoint 8 24))
(declare-const x1 (_ FloatingPoint 8 24))
(declare-const x2 (_ FloatingPoint 8 24))
(declare-const x3 (_ FloatingPoint 8 24))
(declare-const x4 (_ FloatingPoint 8 24))
(declare-const x5 (_ FloatingPoint 8 24))
(declare-const x6 (_ FloatingPoint 8 24))
(assert (fp.eq (fp.div RNE x6 x5) (fp.add RNE x0 x3)))
(assert (fp.leq (fp.mul RNE x2 x1) (fp.mul RNE x6 x4)))
(assert (fp.geq (fp.div RNE x4 x2) (fp.add RNE x5 x5)))
(assert (fp.eq (fp.div RNE x4 x5) (fp.sub RNE x2 x2)))
(assert (fp.geq (fp.neg x3) (fp.mul RNE x5 x0)))
(check-sat)
