db/data/18687279822358946641092919143066720092.z3.out
sat
-------------------
13.587930623
